#Mass

mass 1 15.9994 # O (water TIP4P/2005)
mass 2 1.008 # H (water TIP4P/2005)
mass 3 12.011 # C (CNT AIREBO)

#Pair Coeff

pair_coeff * * lj/cut/tip4p/long 0 0
pair_coeff 1 1 lj/cut/tip4p/long 0.008031034 3.1589 # O-O (water TIP4P/2005)
pair_coeff 1 3 lj/cut/tip4p/long 0.00494351 3.28 # O-C (amber)
pair_coeff * * airebo CH.airebo NULL NULL C

#Bond

bond_coeff 1 0 0.9572 # (water TIP4P/2005)

#Angle

angle_coeff 1 0 104.52 # (water TIP4P/2005)
