pair_style eam/fs
pair_coeff * * FeAu-eam-LJ.fs Au
