# This LAMMPS input script simulates a silicalite in vacuum
# Written by Simon Gravelle (https://simongravelle.github.io/)
# Find more scripts here: https://github.com/simongravelle/lammps-input-files
# LAMMPS tutorials for beginners: https://lammpstutorials.github.io/

boundary p p p
units metal
atom_style atomic
pair_style tersoff

read_data data.lammps
include parm.lammps

fix mynpt all nvt temp 300 300 0.1
timestep 0.0005

dump dp1 all atom 1000 dump.lammpstrj
thermo 1000

run 20000
