#Mass

mass 1 15.9994
mass 2 1.008
mass 3 15.9994
mass 4 15.9994
mass 5 15.9994
mass 6 15.9994
mass 7 15.9994
mass 8 14.0067
mass 9 14.0067
mass 10 14.0067
mass 11 14.0067
mass 12 14.0067
mass 13 14.0067
mass 14 12.011
mass 15 12.011
mass 16 13.019
mass 17 14.027
mass 18 15.035
mass 19 16.043
mass 20 14.027
mass 21 12.011
mass 22 1.008
mass 23 1.008
mass 24 1
mass 25 32.06
mass 26 63.546
mass 27 63.546
mass 28 55.847
mass 29 65.37
mass 30 24.305
mass 31 40.08
mass 32 39.948
mass 33 18.9984
mass 34 35.453
mass 35 79.904
mass 36 12.011
mass 37 15.9994
mass 38 22.9898
mass 39 35.453
mass 40 12.011
mass 41 35.453
mass 42 1.008
mass 43 32.06
mass 44 12.011
mass 45 15.9994
mass 46 12.011
mass 47 35.453
mass 48 18.9984
mass 49 12.011
mass 50 13.019
mass 51 15.9994
mass 52 12.011
mass 53 15.9994
mass 54 14.0067
mass 55 15.035
mass 56 126.9045
mass 57 35.453
mass 58 10.811
mass 59 78.96
mass 60 1.008
mass 61 35.453
mass 62 79.904
mass 63 15.9994
mass 64 14.0067
mass 65 12.011
mass 66 12.011
mass 67 14.0067
mass 68 14.0067
mass 69 15.9994
mass 70 28.08
mass 71 30.9738

#Pair Coeff

pair_coeff 1 1 0.1852 3.1589
pair_coeff 2 2 0 0
pair_coeff 3 3 0.30571 2.7601
pair_coeff 3 4 0.35503 2.6921
pair_coeff 4 4 0.4123 2.6259
pair_coeff 3 5 0.22049 2.9146
pair_coeff 4 5 0.13534 3.1616
pair_coeff 5 5 0.20306 2.9548
pair_coeff 3 6 0.27792 2.8043
pair_coeff 4 6 0.32275 2.7352
pair_coeff 5 6 0.20306 2.9548
pair_coeff 6 6 0.25266 2.8492
pair_coeff 3 7 0.19288 3.0167
pair_coeff 4 7 0.11839 3.2724
pair_coeff 5 7 0.17764 3.0584
pair_coeff 6 7 0.17764 3.0584
pair_coeff 7 7 0.15539 3.1656
pair_coeff 3 8 0.16948 3.0641
pair_coeff 4 8 0.092057 3.3922
pair_coeff 5 8 0.13812 3.1704
pair_coeff 6 8 0.13812 3.1704
pair_coeff 7 8 0.12083 3.2816
pair_coeff 8 8 0.15291 3.1365
pair_coeff 3 9 0.12952 3.2046
pair_coeff 4 9 0.079496 3.4762
pair_coeff 5 9 0.11928 3.2489
pair_coeff 6 9 0.11928 3.2489
pair_coeff 7 9 0.10434 3.3628
pair_coeff 8 9 0.081132 3.4859
pair_coeff 9 9 0.070062 3.5722
pair_coeff 3 10 0.094984 3.3746
pair_coeff 4 10 0.034984 3.9858
pair_coeff 5 10 0.087475 3.4212
pair_coeff 6 10 0.087475 3.4212
pair_coeff 7 10 0.076522 3.5412
pair_coeff 8 10 0.15291 3.1365
pair_coeff 9 10 0.051382 3.7617
pair_coeff 10 10 0.15291 3.1365
pair_coeff 3 11 0.15829 3.0992
pair_coeff 4 11 0.097157 3.3619
pair_coeff 5 11 0.14578 3.1421
pair_coeff 6 11 0.14578 3.1421
pair_coeff 7 11 0.12752 3.2522
pair_coeff 8 11 0.099157 3.3713
pair_coeff 9 11 0.085627 3.4547
pair_coeff 10 11 0.062797 3.638
pair_coeff 11 11 0.10465 3.3411
pair_coeff 3 12 0.13567 3.1799
pair_coeff 4 12 0.049968 3.7559
pair_coeff 5 12 0.12494 3.2239
pair_coeff 6 12 0.12494 3.2239
pair_coeff 7 12 0.1093 3.3369
pair_coeff 8 12 0.15291 3.1365
pair_coeff 9 12 0.073389 3.5447
pair_coeff 10 12 0.15291 3.1365
pair_coeff 11 12 0.089693 3.4281
pair_coeff 12 12 0.15291 3.1365
pair_coeff 3 13 0.14688 3.1381
pair_coeff 4 13 0.054099 3.7065
pair_coeff 5 13 0.13527 3.1815
pair_coeff 6 13 0.13527 3.1815
pair_coeff 7 13 0.11833 3.293
pair_coeff 8 13 0.15291 3.1365
pair_coeff 9 13 0.079456 3.4981
pair_coeff 10 13 0.15291 3.1365
pair_coeff 11 13 0.097108 3.383
pair_coeff 12 13 0.15291 3.1365
pair_coeff 13 13 0.15291 3.1365
pair_coeff 3 14 0.14237 3.1439
pair_coeff 4 14 0.16534 3.0665
pair_coeff 5 14 0.12943 3.1943
pair_coeff 6 14 0.12943 3.1943
pair_coeff 7 14 0.1015 3.367
pair_coeff 8 14 0.10069 3.3515
pair_coeff 9 14 0.10069 3.3515
pair_coeff 10 14 0.10069 3.3515
pair_coeff 11 14 0.10069 3.3515
pair_coeff 12 14 0.10069 3.3515
pair_coeff 13 14 0.10069 3.3515
pair_coeff 14 14 0.066302 3.5812
pair_coeff 3 15 0.022608 4.2808
pair_coeff 4 15 0.026255 4.1754
pair_coeff 5 15 0.020553 4.3494
pair_coeff 6 15 0.020553 4.3494
pair_coeff 7 15 0.016119 4.5846
pair_coeff 8 15 0.01599 4.5634
pair_coeff 9 15 0.01599 4.5634
pair_coeff 10 15 0.01599 4.5634
pair_coeff 11 15 0.01599 4.5634
pair_coeff 12 15 0.01599 4.5634
pair_coeff 13 15 0.01599 4.5634
pair_coeff 14 15 0.010529 4.8762
pair_coeff 15 15 0.0016719 6.6395
pair_coeff 3 16 0.083267 3.722
pair_coeff 4 16 0.096698 3.6304
pair_coeff 5 16 0.075697 3.7816
pair_coeff 6 16 0.075697 3.7816
pair_coeff 7 16 0.059365 3.9861
pair_coeff 8 16 0.058889 3.9677
pair_coeff 9 16 0.058889 3.9677
pair_coeff 10 16 0.058889 3.9677
pair_coeff 11 16 0.058889 3.9677
pair_coeff 12 16 0.058889 3.9677
pair_coeff 13 16 0.058889 3.9677
pair_coeff 14 16 0.038777 4.2396
pair_coeff 15 16 0.0061578 5.7728
pair_coeff 16 16 0.022679 5.0192
pair_coeff 3 17 0.1732 3.3518
pair_coeff 4 17 0.20113 3.2693
pair_coeff 5 17 0.15745 3.4055
pair_coeff 6 17 0.15745 3.4055
pair_coeff 7 17 0.12348 3.5896
pair_coeff 8 17 0.12249 3.573
pair_coeff 9 17 0.12249 3.573
pair_coeff 10 17 0.12249 3.573
pair_coeff 11 17 0.12249 3.573
pair_coeff 12 17 0.12249 3.573
pair_coeff 13 17 0.12249 3.573
pair_coeff 14 17 0.080658 3.818
pair_coeff 15 17 0.012808 5.1986
pair_coeff 16 17 0.047173 4.52
pair_coeff 17 17 0.098122 4.0704
pair_coeff 3 18 0.25172 3.2163
pair_coeff 4 18 0.29232 3.1371
pair_coeff 5 18 0.22883 3.2678
pair_coeff 6 18 0.22883 3.2678
pair_coeff 7 18 0.17946 3.4445
pair_coeff 8 18 0.17802 3.4286
pair_coeff 9 18 0.17802 3.4286
pair_coeff 10 18 0.17802 3.4286
pair_coeff 11 18 0.17802 3.4286
pair_coeff 12 18 0.17802 3.4286
pair_coeff 13 18 0.17802 3.4286
pair_coeff 14 18 0.11722 3.6636
pair_coeff 15 18 0.018615 4.9884
pair_coeff 16 18 0.068559 4.3372
pair_coeff 17 18 0.1426 3.9058
pair_coeff 18 18 0.20725 3.7479
pair_coeff 3 19 0.30386 3.2
pair_coeff 4 19 0.35287 3.1212
pair_coeff 5 19 0.27623 3.2512
pair_coeff 6 19 0.27623 3.2512
pair_coeff 7 19 0.21664 3.427
pair_coeff 8 19 0.2149 3.4112
pair_coeff 9 19 0.2149 3.4112
pair_coeff 10 19 0.2149 3.4112
pair_coeff 11 19 0.2149 3.4112
pair_coeff 12 19 0.2149 3.4112
pair_coeff 13 19 0.2149 3.4112
pair_coeff 14 19 0.14151 3.645
pair_coeff 15 19 0.022471 4.9631
pair_coeff 16 19 0.082761 4.3152
pair_coeff 17 19 0.17215 3.886
pair_coeff 18 19 0.25019 3.7289
pair_coeff 19 19 0.30201 3.7099
pair_coeff 3 20 0.18714 3.3038
pair_coeff 4 20 0.21732 3.2225
pair_coeff 5 20 0.17012 3.3567
pair_coeff 6 20 0.17012 3.3567
pair_coeff 7 20 0.13342 3.5383
pair_coeff 8 20 0.13235 3.5219
pair_coeff 9 20 0.13235 3.5219
pair_coeff 10 20 0.13235 3.5219
pair_coeff 11 20 0.13235 3.5219
pair_coeff 12 20 0.13235 3.5219
pair_coeff 13 20 0.13235 3.5219
pair_coeff 14 20 0.087148 3.7633
pair_coeff 15 20 0.013839 5.1242
pair_coeff 16 20 0.050969 4.4553
pair_coeff 17 20 0.10602 4.0121
pair_coeff 18 20 0.15408 3.8499
pair_coeff 19 20 0.186 3.8304
pair_coeff 20 20 0.11455 3.9547
pair_coeff 3 21 0.19165 3.2134
pair_coeff 4 21 0.22256 3.1343
pair_coeff 5 21 0.17422 3.2649
pair_coeff 6 21 0.17422 3.2649
pair_coeff 7 21 0.13663 3.4414
pair_coeff 8 21 0.13554 3.4255
pair_coeff 9 21 0.13554 3.4255
pair_coeff 10 21 0.13554 3.4255
pair_coeff 11 21 0.13554 3.4255
pair_coeff 12 21 0.13554 3.4255
pair_coeff 13 21 0.13554 3.4255
pair_coeff 14 21 0.089249 3.6603
pair_coeff 15 21 0.014173 4.9839
pair_coeff 16 21 0.052198 4.3333
pair_coeff 17 21 0.10857 3.9023
pair_coeff 18 21 0.15779 3.7446
pair_coeff 19 21 0.19048 3.7255
pair_coeff 20 21 0.11731 3.8465
pair_coeff 21 21 0.12014 3.7412
pair_coeff 3 22 0.093004 2.5594
pair_coeff 4 22 0.10801 2.4964
pair_coeff 5 22 0.084549 2.6004
pair_coeff 6 22 0.084549 2.6004
pair_coeff 7 22 0.066307 2.7411
pair_coeff 8 22 0.065776 2.7284
pair_coeff 9 22 0.065776 2.7284
pair_coeff 10 22 0.065776 2.7284
pair_coeff 11 22 0.065776 2.7284
pair_coeff 12 22 0.065776 2.7284
pair_coeff 13 22 0.065776 2.7284
pair_coeff 14 22 0.043312 2.9154
pair_coeff 15 22 0.0068779 3.9697
pair_coeff 16 22 0.025331 3.4515
pair_coeff 17 22 0.05269 3.1082
pair_coeff 18 22 0.076577 2.9825
pair_coeff 19 22 0.092439 2.9674
pair_coeff 20 22 0.05693 3.0637
pair_coeff 21 22 0.058302 2.9798
pair_coeff 22 22 0.028294 2.3734
pair_coeff 3 23 0 0
pair_coeff 4 23 0 0
pair_coeff 5 23 0 0
pair_coeff 6 23 0 0
pair_coeff 7 23 0 0
pair_coeff 8 23 0 0
pair_coeff 9 23 0 0
pair_coeff 10 23 0 0
pair_coeff 11 23 0 0
pair_coeff 12 23 0 0
pair_coeff 13 23 0 0
pair_coeff 14 23 0 0
pair_coeff 15 23 0 0
pair_coeff 16 23 0 0
pair_coeff 17 23 0 0
pair_coeff 18 23 0 0
pair_coeff 19 23 0 0
pair_coeff 20 23 0 0
pair_coeff 21 23 0 0
pair_coeff 22 23 0 0
pair_coeff 23 23 0 0
pair_coeff 3 24 0 0
pair_coeff 4 24 0 0
pair_coeff 5 24 0 0
pair_coeff 6 24 0 0
pair_coeff 7 24 0 0
pair_coeff 8 24 0 0
pair_coeff 9 24 0 0
pair_coeff 10 24 0 0
pair_coeff 11 24 0 0
pair_coeff 12 24 0 0
pair_coeff 13 24 0 0
pair_coeff 14 24 0 0
pair_coeff 15 24 0 0
pair_coeff 16 24 0 0
pair_coeff 17 24 0 0
pair_coeff 18 24 0 0
pair_coeff 19 24 0 0
pair_coeff 20 24 0 0
pair_coeff 21 24 0 0
pair_coeff 22 24 0 0
pair_coeff 23 24 0 0
pair_coeff 24 24 0 0
pair_coeff 3 25 0.37317 3.0215
pair_coeff 4 25 0.43337 2.9471
pair_coeff 5 25 0.33925 3.0699
pair_coeff 6 25 0.33925 3.0699
pair_coeff 7 25 0.26605 3.2359
pair_coeff 8 25 0.26392 3.2209
pair_coeff 9 25 0.26392 3.2209
pair_coeff 10 25 0.26392 3.2209
pair_coeff 11 25 0.26392 3.2209
pair_coeff 12 25 0.26392 3.2209
pair_coeff 13 25 0.26392 3.2209
pair_coeff 14 25 0.17379 3.4417
pair_coeff 15 25 0.027597 4.6863
pair_coeff 16 25 0.10164 4.0745
pair_coeff 17 25 0.21141 3.6693
pair_coeff 18 25 0.30726 3.5209
pair_coeff 19 25 0.37091 3.5031
pair_coeff 20 25 0.22843 3.6168
pair_coeff 21 25 0.23393 3.5178
pair_coeff 22 25 0.11353 2.8019
pair_coeff 23 25 0 0
pair_coeff 24 25 0 0
pair_coeff 25 25 0.45551 3.3077
pair_coeff 3 26 0.22231 2.5286
pair_coeff 4 26 0.081881 2.9866
pair_coeff 5 26 0.20473 2.5636
pair_coeff 6 26 0.20473 2.5636
pair_coeff 7 26 0.1791 2.6535
pair_coeff 8 26 0.55838 2.1823
pair_coeff 9 26 0.55838 2.1823
pair_coeff 10 26 0.55838 2.1823
pair_coeff 11 26 0.14698 2.726
pair_coeff 12 26 0.55838 2.1823
pair_coeff 13 26 0.55838 2.1823
pair_coeff 14 26 0.36768 2.3319
pair_coeff 15 26 0.058387 3.1751
pair_coeff 16 26 0.21504 2.7606
pair_coeff 17 26 0.44729 2.4861
pair_coeff 18 26 0.65007 2.3855
pair_coeff 19 26 0.78473 2.3734
pair_coeff 20 26 0.48329 2.4505
pair_coeff 21 26 0.49494 2.3834
pair_coeff 22 26 0.24019 1.8984
pair_coeff 23 26 0 0
pair_coeff 24 26 0 0
pair_coeff 25 26 0.96374 2.2411
pair_coeff 26 26 2.039 1.5184
pair_coeff 3 27 0.12227 2.7936
pair_coeff 4 27 0.045033 3.2996
pair_coeff 5 27 0.1126 2.8322
pair_coeff 6 27 0.1126 2.8322
pair_coeff 7 27 0.098503 2.9315
pair_coeff 8 27 0.55838 2.1823
pair_coeff 9 27 0.55838 2.1823
pair_coeff 10 27 0.55838 2.1823
pair_coeff 11 27 0.080835 3.0116
pair_coeff 12 27 0.55838 2.1823
pair_coeff 13 27 0.55838 2.1823
pair_coeff 14 27 0.36768 2.3319
pair_coeff 15 27 0.058387 3.1751
pair_coeff 16 27 0.21504 2.7606
pair_coeff 17 27 0.44729 2.4861
pair_coeff 18 27 0.65007 2.3855
pair_coeff 19 27 0.78473 2.3734
pair_coeff 20 27 0.48329 2.4505
pair_coeff 21 27 0.49494 2.3834
pair_coeff 22 27 0.24019 1.8984
pair_coeff 23 27 0 0
pair_coeff 24 27 0 0
pair_coeff 25 27 0.96374 2.2411
pair_coeff 26 27 2.039 1.5184
pair_coeff 27 27 2.039 1.5184
pair_coeff 3 28 0 0
pair_coeff 4 28 0 0
pair_coeff 5 28 0 0
pair_coeff 6 28 0 0
pair_coeff 7 28 0 0
pair_coeff 8 28 0 0
pair_coeff 9 28 0 0
pair_coeff 10 28 0 0
pair_coeff 11 28 0 0
pair_coeff 12 28 0 0
pair_coeff 13 28 0 0
pair_coeff 14 28 0 0
pair_coeff 15 28 0 0
pair_coeff 16 28 0 0
pair_coeff 17 28 0 0
pair_coeff 18 28 0 0
pair_coeff 19 28 0 0
pair_coeff 20 28 0 0
pair_coeff 21 28 0 0
pair_coeff 22 28 0 0
pair_coeff 23 28 0 0
pair_coeff 24 28 0 0
pair_coeff 25 28 0 0
pair_coeff 26 28 0 0
pair_coeff 27 28 0 0
pair_coeff 28 28 0 0
pair_coeff 3 29 0.51482 2.1984
pair_coeff 4 29 0.18962 2.5966
pair_coeff 5 29 0.47412 2.2288
pair_coeff 6 29 0.47412 2.2288
pair_coeff 7 29 0.41475 2.3069
pair_coeff 8 29 0.41143 2.2963
pair_coeff 9 29 0.41143 2.2963
pair_coeff 10 29 0.41143 2.2963
pair_coeff 11 29 0.34036 2.37
pair_coeff 12 29 0.41143 2.2963
pair_coeff 13 29 0.41143 2.2963
pair_coeff 14 29 0.27092 2.4536
pair_coeff 15 29 0.043021 3.3409
pair_coeff 16 29 0.15845 2.9048
pair_coeff 17 29 0.32958 2.6159
pair_coeff 18 29 0.47899 2.5101
pair_coeff 19 29 0.57821 2.4974
pair_coeff 20 29 0.3561 2.5784
pair_coeff 21 29 0.36468 2.5079
pair_coeff 22 29 0.17698 1.9975
pair_coeff 23 29 0 0
pair_coeff 24 29 0 0
pair_coeff 25 29 0.71011 2.3581
pair_coeff 26 29 1.5024 1.5977
pair_coeff 27 29 1.5024 1.5977
pair_coeff 28 29 0 0
pair_coeff 29 29 1.107 1.6811
pair_coeff 3 30 0.13376 2.3575
pair_coeff 4 30 0.049265 2.7845
pair_coeff 5 30 0.12318 2.3901
pair_coeff 6 30 0.12318 2.3901
pair_coeff 7 30 0.10776 2.4739
pair_coeff 8 30 0.10689 2.4624
pair_coeff 9 30 0.10689 2.4624
pair_coeff 10 30 0.10689 2.4624
pair_coeff 11 30 0.088431 2.5415
pair_coeff 12 30 0.10689 2.4624
pair_coeff 13 30 0.10689 2.4624
pair_coeff 14 30 0.070387 2.6312
pair_coeff 15 30 0.011177 3.5827
pair_coeff 16 30 0.041167 3.115
pair_coeff 17 30 0.085628 2.8052
pair_coeff 18 30 0.12445 2.6918
pair_coeff 19 30 0.15023 2.6781
pair_coeff 20 30 0.092519 2.765
pair_coeff 21 30 0.094749 2.6893
pair_coeff 22 30 0.045981 2.142
pair_coeff 23 30 0 0
pair_coeff 24 30 0 0
pair_coeff 25 30 0.18449 2.5287
pair_coeff 26 30 0.39034 1.7133
pair_coeff 27 30 0.39034 1.7133
pair_coeff 28 30 0 0
pair_coeff 29 30 0.28761 1.8028
pair_coeff 30 30 0.074725 1.9332
pair_coeff 3 31 0.17031 2.8438
pair_coeff 4 31 0.06273 3.3589
pair_coeff 5 31 0.15685 2.8831
pair_coeff 6 31 0.15685 2.8831
pair_coeff 7 31 0.13721 2.9842
pair_coeff 8 31 0.13611 2.9704
pair_coeff 9 31 0.13611 2.9704
pair_coeff 10 31 0.13611 2.9704
pair_coeff 11 31 0.1126 3.0658
pair_coeff 12 31 0.13611 2.9704
pair_coeff 13 31 0.13611 2.9704
pair_coeff 14 31 0.089626 3.174
pair_coeff 15 31 0.014233 4.3218
pair_coeff 16 31 0.052419 3.7576
pair_coeff 17 31 0.10903 3.3838
pair_coeff 18 31 0.15846 3.247
pair_coeff 19 31 0.19129 3.2306
pair_coeff 20 31 0.11781 3.3354
pair_coeff 21 31 0.12065 3.2441
pair_coeff 22 31 0.058549 2.5839
pair_coeff 23 31 0 0
pair_coeff 24 31 0 0
pair_coeff 25 31 0.23492 3.0504
pair_coeff 26 31 0.49703 2.0667
pair_coeff 27 31 0.49703 2.0667
pair_coeff 28 31 0 0
pair_coeff 29 31 0.36622 2.1747
pair_coeff 30 31 0.095149 2.332
pair_coeff 31 31 0.12116 2.8131
pair_coeff 3 32 0.26982 3.0678
pair_coeff 4 32 0.31335 2.9923
pair_coeff 5 32 0.24529 3.1169
pair_coeff 6 32 0.24529 3.1169
pair_coeff 7 32 0.19237 3.2855
pair_coeff 8 32 0.19083 3.2703
pair_coeff 9 32 0.19083 3.2703
pair_coeff 10 32 0.19083 3.2703
pair_coeff 11 32 0.19083 3.2703
pair_coeff 12 32 0.19083 3.2703
pair_coeff 13 32 0.19083 3.2703
pair_coeff 14 32 0.12566 3.4945
pair_coeff 15 32 0.019954 4.7581
pair_coeff 16 32 0.073491 4.137
pair_coeff 17 32 0.15286 3.7255
pair_coeff 18 32 0.22216 3.5749
pair_coeff 19 32 0.26819 3.5567
pair_coeff 20 32 0.16517 3.6722
pair_coeff 21 32 0.16915 3.5717
pair_coeff 22 32 0.082086 2.8448
pair_coeff 23 32 0 0
pair_coeff 24 32 0 0
pair_coeff 25 32 0.32936 3.3584
pair_coeff 26 32 0.69684 2.2754
pair_coeff 27 32 0.69684 2.2754
pair_coeff 28 32 0 0
pair_coeff 29 32 0.51345 2.3942
pair_coeff 30 32 0.1334 2.5675
pair_coeff 31 32 0.16986 3.0971
pair_coeff 32 32 0.23815 3.4098
pair_coeff 3 33 0.18252 2.8486
pair_coeff 4 33 0.21196 2.7785
pair_coeff 5 33 0.10574 3.12
pair_coeff 6 33 0.16593 2.8943
pair_coeff 7 33 0.0925 3.2293
pair_coeff 8 33 0.071924 3.3476
pair_coeff 9 33 0.062111 3.4304
pair_coeff 10 33 0.045551 3.6124
pair_coeff 11 33 0.075909 3.3176
pair_coeff 12 33 0.06506 3.404
pair_coeff 13 33 0.070438 3.3593
pair_coeff 14 33 0.084999 3.2448
pair_coeff 15 33 0.013498 4.4182
pair_coeff 16 33 0.049712 3.8414
pair_coeff 17 33 0.1034 3.4594
pair_coeff 18 33 0.15028 3.3195
pair_coeff 19 33 0.18141 3.3026
pair_coeff 20 33 0.11172 3.4099
pair_coeff 21 33 0.11442 3.3165
pair_coeff 22 33 0.055526 2.6416
pair_coeff 23 33 0 0
pair_coeff 24 33 0 0
pair_coeff 25 33 0.22279 3.1185
pair_coeff 26 33 0.10661 2.7069
pair_coeff 27 33 0.058635 2.9905
pair_coeff 28 33 0 0
pair_coeff 29 33 0.24689 2.3533
pair_coeff 30 33 0.064144 2.5236
pair_coeff 31 33 0.081676 3.0442
pair_coeff 32 33 0.16109 3.1662
pair_coeff 33 33 0.10897 2.9401
pair_coeff 3 34 0.30289 3.0947
pair_coeff 4 34 0.35174 3.0185
pair_coeff 5 34 0.24685 3.202
pair_coeff 6 34 0.27535 3.1442
pair_coeff 7 34 0.21594 3.3142
pair_coeff 8 34 0.16791 3.4356
pair_coeff 9 34 0.145 3.5206
pair_coeff 10 34 0.10634 3.7074
pair_coeff 11 34 0.17721 3.4049
pair_coeff 12 34 0.15188 3.4935
pair_coeff 13 34 0.16444 3.4476
pair_coeff 14 34 0.14105 3.5251
pair_coeff 15 34 0.022399 4.7998
pair_coeff 16 34 0.082497 4.1732
pair_coeff 17 34 0.1716 3.7581
pair_coeff 18 34 0.24939 3.6062
pair_coeff 19 34 0.30105 3.5879
pair_coeff 20 34 0.1854 3.7044
pair_coeff 21 34 0.18987 3.6029
pair_coeff 22 34 0.092144 2.8697
pair_coeff 23 34 0 0
pair_coeff 24 34 0 0
pair_coeff 25 34 0.36972 3.3878
pair_coeff 26 34 0.24889 2.778
pair_coeff 27 34 0.13688 3.0691
pair_coeff 28 34 0 0
pair_coeff 29 34 0.57636 2.4152
pair_coeff 30 34 0.14975 2.59
pair_coeff 31 34 0.19068 3.1243
pair_coeff 32 34 0.26733 3.4397
pair_coeff 33 34 0.18083 3.194
pair_coeff 34 34 0.30009 3.4698
pair_coeff 3 35 0.46191 3.1743
pair_coeff 4 35 0.53642 3.0962
pair_coeff 5 35 0.37646 3.2844
pair_coeff 6 35 0.41992 3.2252
pair_coeff 7 35 0.32932 3.3996
pair_coeff 8 35 0.25607 3.5241
pair_coeff 9 35 0.22113 3.6113
pair_coeff 10 35 0.16217 3.8028
pair_coeff 11 35 0.27025 3.4925
pair_coeff 12 35 0.23163 3.5835
pair_coeff 13 35 0.25078 3.5363
pair_coeff 14 35 0.21511 3.6158
pair_coeff 15 35 0.03416 4.9234
pair_coeff 16 35 0.12581 4.2807
pair_coeff 17 35 0.26169 3.8549
pair_coeff 18 35 0.38032 3.699
pair_coeff 19 35 0.45911 3.6803
pair_coeff 20 35 0.28275 3.7997
pair_coeff 21 35 0.28956 3.6957
pair_coeff 22 35 0.14052 2.9436
pair_coeff 23 35 0 0
pair_coeff 24 35 0 0
pair_coeff 25 35 0.56384 3.475
pair_coeff 26 35 0.37956 2.8495
pair_coeff 27 35 0.20875 3.1481
pair_coeff 28 35 0 0
pair_coeff 29 35 0.87897 2.4774
pair_coeff 30 35 0.22837 2.6567
pair_coeff 31 35 0.29079 3.2047
pair_coeff 32 35 0.40769 3.5283
pair_coeff 33 35 0.27578 3.2762
pair_coeff 34 35 0.45764 3.5592
pair_coeff 35 35 0.69792 3.6508
pair_coeff 3 36 0.27263 3.1527
pair_coeff 4 36 0.31661 3.0751
pair_coeff 5 36 0.24785 3.2032
pair_coeff 6 36 0.24785 3.2032
pair_coeff 7 36 0.19437 3.3764
pair_coeff 8 36 0.19281 3.3608
pair_coeff 9 36 0.19281 3.3608
pair_coeff 10 36 0.19281 3.3608
pair_coeff 11 36 0.19281 3.3608
pair_coeff 12 36 0.19281 3.3608
pair_coeff 13 36 0.19281 3.3608
pair_coeff 14 36 0.12696 3.5912
pair_coeff 15 36 0.020162 4.8898
pair_coeff 16 36 0.074255 4.2515
pair_coeff 17 36 0.15445 3.8286
pair_coeff 18 36 0.22447 3.6738
pair_coeff 19 36 0.27097 3.6552
pair_coeff 20 36 0.16688 3.7739
pair_coeff 21 36 0.17091 3.6705
pair_coeff 22 36 0.082939 2.9236
pair_coeff 23 36 0 0
pair_coeff 24 36 0 0
pair_coeff 25 36 0.33279 3.4513
pair_coeff 26 36 0.70408 2.3384
pair_coeff 27 36 0.70408 2.3384
pair_coeff 28 36 0 0
pair_coeff 29 36 0.51879 2.4605
pair_coeff 30 36 0.13479 2.6386
pair_coeff 31 36 0.17163 3.1829
pair_coeff 32 36 0.24062 3.5042
pair_coeff 33 36 0.16277 3.2539
pair_coeff 34 36 0.27011 3.5349
pair_coeff 35 36 0.41193 3.6259
pair_coeff 36 36 0.24313 3.6012
pair_coeff 3 37 0.17741 3.0221
pair_coeff 4 37 0.10889 3.2782
pair_coeff 5 37 0.16338 3.0639
pair_coeff 6 37 0.16338 3.0639
pair_coeff 7 37 0.14292 3.1713
pair_coeff 8 37 0.11113 3.2874
pair_coeff 9 37 0.095969 3.3688
pair_coeff 10 37 0.070381 3.5475
pair_coeff 11 37 0.11729 3.258
pair_coeff 12 37 0.10053 3.3428
pair_coeff 13 37 0.10884 3.2989
pair_coeff 14 37 0.093358 3.373
pair_coeff 15 37 0.014825 4.5927
pair_coeff 16 37 0.054601 3.9932
pair_coeff 17 37 0.11357 3.596
pair_coeff 18 37 0.16506 3.4506
pair_coeff 19 37 0.19925 3.4331
pair_coeff 20 37 0.12271 3.5446
pair_coeff 21 37 0.12567 3.4475
pair_coeff 22 37 0.060986 2.7459
pair_coeff 23 37 0 0
pair_coeff 24 37 0 0
pair_coeff 25 37 0.2447 3.2417
pair_coeff 26 37 0.16473 2.6582
pair_coeff 27 37 0.090598 2.9367
pair_coeff 28 37 0 0
pair_coeff 29 37 0.38147 2.311
pair_coeff 30 37 0.099111 2.4783
pair_coeff 31 37 0.1262 2.9895
pair_coeff 32 37 0.17693 3.2913
pair_coeff 33 37 0.085077 3.2351
pair_coeff 34 37 0.19861 3.3202
pair_coeff 35 37 0.30289 3.4056
pair_coeff 36 37 0.17877 3.3824
pair_coeff 37 37 0.13145 3.1769
pair_coeff 3 38 0.034931 2.9955
pair_coeff 4 38 0.012866 3.538
pair_coeff 5 38 0.03217 3.0369
pair_coeff 6 38 0.03217 3.0369
pair_coeff 7 38 0.028142 3.1433
pair_coeff 8 38 0.027916 3.1288
pair_coeff 9 38 0.027916 3.1288
pair_coeff 10 38 0.027916 3.1288
pair_coeff 11 38 0.023094 3.2293
pair_coeff 12 38 0.027916 3.1288
pair_coeff 13 38 0.027916 3.1288
pair_coeff 14 38 0.018382 3.3433
pair_coeff 15 38 0.0029191 4.5522
pair_coeff 16 38 0.010751 3.958
pair_coeff 17 38 0.022362 3.5643
pair_coeff 18 38 0.0325 3.4202
pair_coeff 19 38 0.039233 3.4028
pair_coeff 20 38 0.024162 3.5133
pair_coeff 21 38 0.024744 3.4171
pair_coeff 22 38 0.012008 2.7217
pair_coeff 23 38 0 0
pair_coeff 24 38 0 0
pair_coeff 25 38 0.048182 3.2131
pair_coeff 26 38 0.10194 2.177
pair_coeff 27 38 0.10194 2.177
pair_coeff 28 38 0 0
pair_coeff 29 38 0.075112 2.2906
pair_coeff 30 38 0.019515 2.4564
pair_coeff 31 38 0.024849 2.9631
pair_coeff 32 38 0.034838 3.2623
pair_coeff 33 38 0.016752 3.2066
pair_coeff 34 38 0.039107 3.2909
pair_coeff 35 38 0.05964 3.3756
pair_coeff 36 38 0.035201 3.3526
pair_coeff 37 38 0.025884 3.1489
pair_coeff 38 38 0.0050965 3.1212
pair_coeff 3 39 0.22265 3.3622
pair_coeff 4 39 0.25856 3.2794
pair_coeff 5 39 0.18146 3.4788
pair_coeff 6 39 0.20241 3.416
pair_coeff 7 39 0.15874 3.6008
pair_coeff 8 39 0.12343 3.7326
pair_coeff 9 39 0.10659 3.825
pair_coeff 10 39 0.078168 4.0279
pair_coeff 11 39 0.13027 3.6992
pair_coeff 12 39 0.11165 3.7955
pair_coeff 13 39 0.12088 3.7456
pair_coeff 14 39 0.10369 3.8298
pair_coeff 15 39 0.016465 5.2147
pair_coeff 16 39 0.060642 4.534
pair_coeff 17 39 0.12614 4.083
pair_coeff 18 39 0.18332 3.918
pair_coeff 19 39 0.22129 3.8981
pair_coeff 20 39 0.13629 4.0246
pair_coeff 21 39 0.13957 3.9144
pair_coeff 22 39 0.067733 3.1178
pair_coeff 23 39 0 0
pair_coeff 24 39 0 0
pair_coeff 25 39 0.27177 3.6807
pair_coeff 26 39 0.18295 3.0182
pair_coeff 27 39 0.10062 3.3344
pair_coeff 28 39 0 0
pair_coeff 29 39 0.42367 2.624
pair_coeff 30 39 0.11008 2.8139
pair_coeff 31 39 0.14016 3.3944
pair_coeff 32 39 0.19651 3.7371
pair_coeff 33 39 0.13293 3.4701
pair_coeff 34 39 0.22059 3.7698
pair_coeff 35 39 0.3364 3.8669
pair_coeff 36 39 0.19855 3.8405
pair_coeff 37 39 0.146 3.6072
pair_coeff 38 39 0.028747 3.5754
pair_coeff 39 39 0.16215 4.0957
pair_coeff 3 40 0.17636 3.0634
pair_coeff 4 40 0.20481 2.988
pair_coeff 5 40 0.16033 3.1124
pair_coeff 6 40 0.16033 3.1124
pair_coeff 7 40 0.12574 3.2808
pair_coeff 8 40 0.12473 3.2656
pair_coeff 9 40 0.12473 3.2656
pair_coeff 10 40 0.12473 3.2656
pair_coeff 11 40 0.12473 3.2656
pair_coeff 12 40 0.12473 3.2656
pair_coeff 13 40 0.12473 3.2656
pair_coeff 14 40 0.082132 3.4894
pair_coeff 15 40 0.013042 4.7513
pair_coeff 16 40 0.048035 4.131
pair_coeff 17 40 0.099915 3.7202
pair_coeff 18 40 0.14521 3.5698
pair_coeff 19 40 0.17529 3.5516
pair_coeff 20 40 0.10796 3.6669
pair_coeff 21 40 0.11056 3.5665
pair_coeff 22 40 0.053653 2.8407
pair_coeff 23 40 0 0
pair_coeff 24 40 0 0
pair_coeff 25 40 0.21528 3.3536
pair_coeff 26 40 0.45547 2.2721
pair_coeff 27 40 0.45547 2.2721
pair_coeff 28 40 0 0
pair_coeff 29 40 0.3356 2.3908
pair_coeff 30 40 0.087193 2.5638
pair_coeff 31 40 0.11103 3.0927
pair_coeff 32 40 0.15566 3.4049
pair_coeff 33 40 0.10529 3.1617
pair_coeff 34 40 0.17473 3.4348
pair_coeff 35 40 0.26647 3.5232
pair_coeff 36 40 0.15728 3.4992
pair_coeff 37 40 0.11565 3.2866
pair_coeff 38 40 0.022771 3.2576
pair_coeff 39 40 0.12844 3.7317
pair_coeff 40 40 0.10174 3.4001
pair_coeff 3 41 0.3026 3.0813
pair_coeff 4 41 0.35141 3.0055
pair_coeff 5 41 0.27509 3.1307
pair_coeff 6 41 0.27509 3.1307
pair_coeff 7 41 0.21574 3.3
pair_coeff 8 41 0.21401 3.2847
pair_coeff 9 41 0.21401 3.2847
pair_coeff 10 41 0.21401 3.2847
pair_coeff 11 41 0.21401 3.2847
pair_coeff 12 41 0.21401 3.2847
pair_coeff 13 41 0.21401 3.2847
pair_coeff 14 41 0.14092 3.5099
pair_coeff 15 41 0.022378 4.7791
pair_coeff 16 41 0.082418 4.1552
pair_coeff 17 41 0.17143 3.7419
pair_coeff 18 41 0.24915 3.5907
pair_coeff 19 41 0.30076 3.5724
pair_coeff 20 41 0.18523 3.6884
pair_coeff 21 41 0.18969 3.5874
pair_coeff 22 41 0.092056 2.8574
pair_coeff 23 41 0 0
pair_coeff 24 41 0 0
pair_coeff 25 41 0.36937 3.3732
pair_coeff 26 41 0.78147 2.2855
pair_coeff 27 41 0.78147 2.2855
pair_coeff 28 41 0 0
pair_coeff 29 41 0.57581 2.4048
pair_coeff 30 41 0.1496 2.5788
pair_coeff 31 41 0.19049 3.1108
pair_coeff 32 41 0.26707 3.4249
pair_coeff 33 41 0.18066 3.1802
pair_coeff 34 41 0.2998 3.4549
pair_coeff 35 41 0.4572 3.5438
pair_coeff 36 41 0.26985 3.5197
pair_coeff 37 41 0.19842 3.3059
pair_coeff 38 41 0.03907 3.2767
pair_coeff 39 41 0.22038 3.7536
pair_coeff 40 41 0.17459 3.42
pair_coeff 41 41 0.29951 3.44
pair_coeff 3 42 0.077703 2.4654
pair_coeff 4 42 0.090237 2.4047
pair_coeff 5 42 0.070639 2.5049
pair_coeff 6 42 0.070639 2.5049
pair_coeff 7 42 0.055398 2.6403
pair_coeff 8 42 0.054955 2.6281
pair_coeff 9 42 0.054955 2.6281
pair_coeff 10 42 0.054955 2.6281
pair_coeff 11 42 0.054955 2.6281
pair_coeff 12 42 0.054955 2.6281
pair_coeff 13 42 0.054955 2.6281
pair_coeff 14 42 0.036186 2.8083
pair_coeff 15 42 0.0057463 3.8238
pair_coeff 16 42 0.021164 3.3246
pair_coeff 17 42 0.044021 2.994
pair_coeff 18 42 0.063978 2.8729
pair_coeff 19 42 0.077231 2.8583
pair_coeff 20 42 0.047564 2.9511
pair_coeff 21 42 0.04871 2.8703
pair_coeff 22 42 0.023639 2.2862
pair_coeff 23 42 0 0
pair_coeff 24 42 0 0
pair_coeff 25 42 0.094848 2.6989
pair_coeff 26 42 0.20067 1.8286
pair_coeff 27 42 0.20067 1.8286
pair_coeff 28 42 0 0
pair_coeff 29 42 0.14786 1.9241
pair_coeff 30 42 0.038416 2.0633
pair_coeff 31 42 0.048916 2.489
pair_coeff 32 42 0.068581 2.7403
pair_coeff 33 42 0.046391 2.5445
pair_coeff 34 42 0.076984 2.7643
pair_coeff 35 42 0.1174 2.8354
pair_coeff 36 42 0.069294 2.8161
pair_coeff 37 42 0.050953 2.645
pair_coeff 38 42 0.010033 2.6217
pair_coeff 39 42 0.05659 3.0033
pair_coeff 40 42 0.044921 2.7999
pair_coeff 41 42 0.07713 2.8201
pair_coeff 42 42 0.01975 2.2022
pair_coeff 3 43 0.30787 3.1346
pair_coeff 4 43 0.35753 3.0574
pair_coeff 5 43 0.27988 3.1848
pair_coeff 6 43 0.27988 3.1848
pair_coeff 7 43 0.21949 3.357
pair_coeff 8 43 0.21774 3.3415
pair_coeff 9 43 0.21774 3.3415
pair_coeff 10 43 0.21774 3.3415
pair_coeff 11 43 0.21774 3.3415
pair_coeff 12 43 0.21774 3.3415
pair_coeff 13 43 0.21774 3.3415
pair_coeff 14 43 0.14337 3.5706
pair_coeff 15 43 0.022768 4.8617
pair_coeff 16 43 0.083853 4.2271
pair_coeff 17 43 0.17442 3.8066
pair_coeff 18 43 0.25349 3.6527
pair_coeff 19 43 0.306 3.6342
pair_coeff 20 43 0.18845 3.7522
pair_coeff 21 43 0.193 3.6494
pair_coeff 22 43 0.09366 2.9068
pair_coeff 23 43 0 0
pair_coeff 24 43 0 0
pair_coeff 25 43 0.3758 3.4315
pair_coeff 26 43 0.79509 2.325
pair_coeff 27 43 0.79509 2.325
pair_coeff 28 43 0 0
pair_coeff 29 43 0.58584 2.4464
pair_coeff 30 43 0.15221 2.6234
pair_coeff 31 43 0.19381 3.1646
pair_coeff 32 43 0.27173 3.4841
pair_coeff 33 43 0.18381 3.2352
pair_coeff 34 43 0.30502 3.5146
pair_coeff 35 43 0.46517 3.6051
pair_coeff 36 43 0.27455 3.5805
pair_coeff 37 43 0.20188 3.363
pair_coeff 38 43 0.039751 3.3333
pair_coeff 39 43 0.22421 3.8184
pair_coeff 40 43 0.17761 3.4791
pair_coeff 41 43 0.30473 3.4995
pair_coeff 42 43 0.07825 2.7999
pair_coeff 43 43 0.31004 3.56
pair_coeff 3 44 0.25172 3.2163
pair_coeff 4 44 0.29232 3.1371
pair_coeff 5 44 0.22883 3.2678
pair_coeff 6 44 0.22883 3.2678
pair_coeff 7 44 0.17946 3.4445
pair_coeff 8 44 0.17802 3.4286
pair_coeff 9 44 0.17802 3.4286
pair_coeff 10 44 0.17802 3.4286
pair_coeff 11 44 0.17802 3.4286
pair_coeff 12 44 0.17802 3.4286
pair_coeff 13 44 0.17802 3.4286
pair_coeff 14 44 0.11722 3.6636
pair_coeff 15 44 0.018615 4.9884
pair_coeff 16 44 0.068559 4.3372
pair_coeff 17 44 0.1426 3.9058
pair_coeff 18 44 0.20725 3.7479
pair_coeff 19 44 0.25019 3.7289
pair_coeff 20 44 0.15408 3.8499
pair_coeff 21 44 0.15779 3.7446
pair_coeff 22 44 0.076577 2.9825
pair_coeff 23 44 0 0
pair_coeff 24 44 0 0
pair_coeff 25 44 0.30726 3.5209
pair_coeff 26 44 0.65007 2.3855
pair_coeff 27 44 0.65007 2.3855
pair_coeff 28 44 0 0
pair_coeff 29 44 0.47899 2.5101
pair_coeff 30 44 0.12445 2.6918
pair_coeff 31 44 0.15846 3.247
pair_coeff 32 44 0.22216 3.5749
pair_coeff 33 44 0.15028 3.3195
pair_coeff 34 44 0.24939 3.6062
pair_coeff 35 44 0.38032 3.699
pair_coeff 36 44 0.22447 3.6738
pair_coeff 37 44 0.16506 3.4506
pair_coeff 38 44 0.0325 3.4202
pair_coeff 39 44 0.18332 3.918
pair_coeff 40 44 0.14521 3.5698
pair_coeff 41 44 0.24915 3.5907
pair_coeff 42 44 0.063978 2.8729
pair_coeff 43 44 0.25349 3.6527
pair_coeff 44 44 0.20725 3.7479
pair_coeff 3 45 0.354 2.6943
pair_coeff 4 45 0.41111 2.6279
pair_coeff 5 45 0.22231 2.9115
pair_coeff 6 45 0.32182 2.7374
pair_coeff 7 45 0.19448 3.0136
pair_coeff 8 45 0.15122 3.1239
pair_coeff 9 45 0.13058 3.2012
pair_coeff 10 45 0.095767 3.371
pair_coeff 11 45 0.15959 3.096
pair_coeff 12 45 0.13678 3.1766
pair_coeff 13 45 0.14809 3.1348
pair_coeff 14 45 0.16486 3.069
pair_coeff 15 45 0.02618 4.1788
pair_coeff 16 45 0.096419 3.6333
pair_coeff 17 45 0.20056 3.2719
pair_coeff 18 45 0.29148 3.1396
pair_coeff 19 45 0.35185 3.1237
pair_coeff 20 45 0.21669 3.2251
pair_coeff 21 45 0.22192 3.1368
pair_coeff 22 45 0.1077 2.4984
pair_coeff 23 45 0 0
pair_coeff 24 45 0 0
pair_coeff 25 45 0.43212 2.9495
pair_coeff 26 45 0.22414 2.526
pair_coeff 27 45 0.12328 2.7906
pair_coeff 28 45 0 0
pair_coeff 29 45 0.51906 2.1961
pair_coeff 30 45 0.13486 2.355
pair_coeff 31 45 0.17172 2.8408
pair_coeff 32 45 0.31245 2.9947
pair_coeff 33 45 0.21135 2.7807
pair_coeff 34 45 0.35073 3.0209
pair_coeff 35 45 0.53488 3.0987
pair_coeff 36 45 0.31569 3.0776
pair_coeff 37 45 0.17887 3.0189
pair_coeff 38 45 0.03522 2.9923
pair_coeff 39 45 0.25782 3.2821
pair_coeff 40 45 0.20422 2.9904
pair_coeff 41 45 0.35039 3.0079
pair_coeff 42 45 0.089977 2.4066
pair_coeff 43 45 0.3565 3.0599
pair_coeff 44 45 0.29148 3.1396
pair_coeff 45 45 0.40992 2.63
pair_coeff 3 46 0.12897 3.2274
pair_coeff 4 46 0.14977 3.148
pair_coeff 5 46 0.11725 3.2791
pair_coeff 6 46 0.11725 3.2791
pair_coeff 7 46 0.09195 3.4564
pair_coeff 8 46 0.091213 3.4405